treewidth/data/MeredithGraph.gr
p tw 70 140
1 35
1 46
1 57
1 18
2 35
2 46
2 57
2 31
13 35
13 46
13 57
13 32
24 35
24 46
24 57
24 7
68 4
68 5
68 6
68 26
69 4
69 5
69 6
69 39
70 4
70 5
70 6
70 40
3 4
3 5
3 6
3 15
7 11
7 12
7 14
8 11
8 12
8 14
8 47
9 11
9 12
9 14
9 48
10 11
10 12
10 14
10 22
15 19
15 20
15 21
16 19
16 20
16 21
16 54
17 19
17 20
17 21
17 55
18 19
18 20
18 21
22 27
22 28
22 29
23 27
23 28
23 29
23 62
25 27
25 28
25 29
25 63
26 27
26 28
26 29
30 34
30 36
30 37
30 64
31 34
31 36
31 37
32 34
32 36
32 37
33 34
33 36
33 37
33 38
38 42
38 43
38 44
39 42
39 43
39 44
40 42
40 43
40 44
41 42
41 43
41 44
41 45
45 50
45 51
45 52
47 50
47 51
47 52
48 50
48 51
48 52
49 50
49 51
49 52
49 53
53 58
53 59
53 60
54 58
54 59
54 60
55 58
55 59
55 60
56 58
56 59
56 60
56 61
61 65
61 66
61 67
62 65
62 66
62 67
63 65
63 66
63 67
64 65
64 66
64 67
