treewidth/data/MeredithGraph.td
c width = 7, time = 2.504028
s td 36 8 70
b 1 13 30 31 32 33 34 36 37
b 2 10 13 15 30 31 33 45 56
b 3 10 15 30 33 45 56 68
b 4 10 23 25 30 56 68
b 5 23 25 30 56 65 66 67
b 6 30 64 65 66 67
b 7 25 63 65 66 67
b 8 23 62 65 66 67
b 9 56 61 65 66 67
b 10 10 23 25 27 28 29 68
b 11 26 27 28 29 68
b 12 10 22 27 28 29
b 13 15 33 45 68 69 70
b 14 33 42 43 44 45 69 70
b 15 41 42 43 44 45
b 16 40 42 43 44 70
b 17 39 42 43 44 69
b 18 33 38 42 43 44
b 19 3 4 5 6 15 68 69 70
b 20 10 13 15 24 31 45 53 56
b 21 10 24 45 47 48 53
b 22 45 47 48 49 50 51 52 53
b 23 10 11 12 14 24 47 48
b 24 9 11 12 14 48
b 25 8 11 12 14 47
b 26 7 11 12 14 24
b 27 13 15 16 17 24 31 53 56
b 28 16 17 53 56 58 59 60
b 29 17 55 58 59 60
b 30 16 54 58 59 60
b 31 13 15 16 17 18 19 24 31
b 32 15 16 17 18 21
b 33 15 16 17 18 20
b 34 13 18 24 31 35 46 57
b 35 2 31 35 46 57
b 36 1 18 35 46 57
2 3
3 4
4 5
5 6
5 7
5 8
5 9
4 10
10 11
10 12
3 13
13 14
14 15
14 16
14 17
14 18
13 19
2 20
20 21
21 22
21 23
23 24
23 25
23 26
20 27
27 28
28 29
28 30
27 31
31 32
31 33
31 34
34 35
34 36
1 2
